files/upTests/tupley32-7-1-2c/0001.eprime
language ESSENCE' 1.0

find pain_tuple1: matrix indexed by [int(1)] of int(2)
find pain_tuple2_tuple1: matrix indexed by [int(1)] of int(5)
find pain_tuple2_tuple2: matrix indexed by [int(1)] of int(6)
find pain_tuple2_tuple3: matrix indexed by [int(1)] of int(7)
find pain_tuple2_tuple4: matrix indexed by [int(1)] of int(8)
such that
    pain_tuple1[1] = 2,
    pain_tuple2_tuple1[1] = 5,
    pain_tuple2_tuple2[1] = 6,
    pain_tuple2_tuple3[1] = 7,
    pain_tuple2_tuple4[1] = 8
