files/upTests/tupley32-7-1-2c/0001.eprime.solution
language ESSENCE' 1.0
$ minion Nodes: 1
$ minion TotalTime: 0.000425
$ Savile Row TotalTime: 0.125
letting pain_tuple2_tuple4 be [8]
letting pain_tuple1 be [2]
letting pain_tuple2_tuple1 be [5]
letting pain_tuple2_tuple3 be [7]
letting pain_tuple2_tuple2 be [6]
